/* objective function */

Min: 750Y1 + 900Y2 + 450Y3 + 13000Y4 + 12000Y5 + 5000Y6 + 900Y7 + 1200Y8 + 750Y9;

/* Constraints */

Y1 + 20Y4 + Y7 + 900Y10 + 450Y11 >= 420;
Y1 + 15Y4 + Y8 + 900Y10 + 450Y11 >= 360;
Y1 + 12Y4 + Y9 + 900Y10 + 450Y11 >= 300;
Y2 + 20Y5 + Y7 - 750Y10 >= 420;
Y2 + 15Y5 + Y8 - 750Y10 >= 360;
Y2 + 12Y5 + Y9 - 750Y10 >= 300;
Y3 + 20Y6 + Y7 - 750Y11 >= 420;
Y3 + 15Y6 + Y8 - 750Y11 >= 360;
Y3 + 12Y6 + Y9 - 750Y11 >= 300;
